(declare-fun c_ack!71 () (_ BitVec 64))
(declare-fun b_ack!70 () (_ BitVec 32))
(declare-fun a_ack!72 () (_ BitVec 32))
(declare-fun FPCHECK_FMUL_ACCURACY ((_ FloatingPoint 11 53) (_ BitVec 64)) Bool)
(assert (not (fp.eq ((_ to_fp 11 53) c_ack!71) ((_ to_fp 11 53) #x0000000000000000))))
(assert (not (= a_ack!72 b_ack!70)))
(assert (not (= #x00000000 b_ack!70)))
(assert (not (= #x00000000 a_ack!72)))
(assert (not (bvslt b_ack!70 #x00000000)))
(assert (not (fp.gt ((_ to_fp 11 53) c_ack!71) ((_ to_fp 11 53) #x4059000000000000))))
(assert (not (fp.lt ((_ to_fp 11 53) c_ack!71) ((_ to_fp 11 53) #xc059000000000000))))
(assert (not (bvslt a_ack!72 #x00000000)))
(assert (not (bvslt a_ack!72 #x00000000)))
(assert (not (= a_ack!72 b_ack!70)))
(assert (not (= #x00000001 a_ack!72)))
(assert (not (= b_ack!70 (bvadd #x00000001 a_ack!72))))
(assert (not (= a_ack!72 (bvadd #x00000001 b_ack!70))))
(assert (not (= a_ack!72 (bvadd #x00000002 b_ack!70))))
(assert (not (= b_ack!70 (bvmul #x00000002 a_ack!72))))
(assert (bvslt b_ack!70 #x0000000a))
(assert (bvslt a_ack!72 #x0000000a))
(assert (fp.lt (fp.abs ((_ to_fp 11 53) c_ack!71)) ((_ to_fp 11 53) #x4014000000000000)))
(assert (not (fp.eq ((_ to_fp 11 53) roundNearestTiesToEven b_ack!70)
            ((_ to_fp 11 53) #x0000000000000000))))
(assert (not (fp.eq ((_ to_fp 11 53) roundNearestTiesToEven a_ack!72)
            ((_ to_fp 11 53) #x0000000000000000))))
(assert (FPCHECK_FMUL_ACCURACY
  ((_ to_fp 11 53) roundNearestTiesToEven b_ack!70)
  #x3ff0000000000000))

(check-sat)
(exit)
